303 5
10 10 10 10 10 

0 0 0 0 0 0 3 2 14 26 
0 0 0 0 0 0 3 3 11 12 
2 3 0 0 0 0 2 5 4 
10 5 0 0 0 0 3 10 9 6 
10 9 0 0 0 0 2 9 6 
4 4 0 0 0 0 1 7 
9 10 0 0 0 0 2 8 220 
7 10 0 0 0 0 1 13 
7 10 0 0 0 0 1 13 
9 9 0 0 0 0 1 13 
1 5 0 0 0 0 1 13 
1 10 0 0 0 0 1 13 
0 0 0 0 0 0 1 38 
0 0 0 0 0 0 2 15 17 
6 0 0 0 0 3 1 16 
2 0 0 0 0 7 2 21 18 
6 0 0 0 0 8 2 21 19 
3 0 0 0 0 9 2 24 20 
8 0 0 0 0 8 2 20 183 
5 0 0 0 0 5 1 22 
4 0 0 0 0 10 1 23 
2 0 0 0 0 10 1 25 
8 0 0 0 0 10 1 25 
4 0 0 0 0 5 1 25 
0 0 0 0 0 0 1 38 
0 0 0 0 0 0 2 27 28 
9 0 0 1 0 0 2 36 29 
4 0 0 10 0 0 5 36 35 34 33 31 
8 0 0 4 0 0 3 35 30 215 
3 0 0 10 0 0 3 34 33 31 
10 0 0 10 0 0 1 32 
2 0 0 10 0 0 1 37 
10 0 0 4 0 0 1 37 
3 0 0 9 0 0 1 37 
10 0 0 8 0 0 1 37 
7 0 0 9 0 0 1 37 
0 0 0 0 0 0 1 38 
0 0 0 0 0 0 3 39 51 93 
0 0 0 0 0 0 4 40 41 42 45 
7 0 3 0 0 0 3 49 48 43 
4 0 3 0 0 0 2 48 43 
6 0 10 0 0 0 1 43 
5 0 10 0 0 0 1 44 
10 0 6 0 0 0 1 46 
6 0 9 0 0 0 1 46 
8 0 9 0 0 0 1 47 
4 0 8 0 0 0 1 50 
7 0 7 0 0 0 1 50 
5 0 10 0 0 0 1 50 
0 0 0 0 0 0 3 135 167 179 
0 0 0 0 0 0 2 52 54 
10 5 3 0 4 5 1 53 
10 5 7 0 8 6 2 56 55 
4 6 7 0 10 5 2 57 55 
1 3 6 0 6 6 4 67 60 59 58 
1 5 7 0 6 6 3 60 59 57 
5 10 6 0 8 4 1 58 
3 10 10 0 7 8 3 65 63 61 
9 3 3 0 2 10 3 71 65 62 
3 5 10 0 7 7 3 71 65 62 
3 9 10 0 6 8 2 71 62 
10 9 10 0 10 9 1 64 
6 9 5 0 9 10 1 64 
6 9 7 0 7 10 2 73 66 
9 10 10 0 10 9 2 73 66 
6 8 9 0 9 8 3 75 70 68 
3 9 10 0 5 8 2 71 69 
3 10 6 0 6 4 1 69 
5 5 6 0 8 10 3 80 76 72 
3 10 10 0 8 7 3 82 80 72 
6 8 7 0 7 5 3 82 77 75 
4 9 9 0 8 10 1 74 
8 8 7 0 4 3 3 83 82 77 
4 3 8 0 10 8 2 81 77 
1 6 9 0 10 9 2 80 78 
8 8 8 0 7 5 3 83 82 79 
8 9 5 0 8 7 2 84 78 
6 5 7 0 10 9 1 79 
5 5 6 0 5 10 2 86 85 
6 10 5 0 4 10 1 83 
6 10 10 0 9 6 1 83 
7 6 7 0 7 10 2 91 85 
1 7 6 0 8 9 1 84 
6 5 8 0 9 7 3 91 90 87 
7 10 10 0 10 9 2 90 87 
4 10 6 0 10 7 3 91 90 89 
10 10 5 0 8 5 1 88 
9 10 9 0 4 6 1 89 
6 6 6 0 6 10 1 92 
10 10 10 0 10 10 1 92 
3 5 10 0 10 5 1 92 
0 0 0 0 0 0 1 303 
0 0 0 0 0 0 2 94 98 
1 2 0 2 4 4 1 95 
7 7 0 9 8 7 2 97 96 
1 6 0 5 9 8 4 114 105 103 99 
6 7 0 10 2 6 5 127 120 114 104 102 
8 8 0 7 7 3 2 103 101 
8 10 0 9 10 4 1 100 
1 9 0 6 10 10 2 104 101 
1 10 0 7 10 8 2 120 102 
9 9 0 9 7 5 3 121 116 106 
6 10 0 6 8 8 2 121 104 
3 7 0 9 10 8 3 116 110 107 
10 10 0 10 9 9 4 121 116 110 108 
4 10 0 3 9 9 2 110 107 
10 8 0 6 7 5 2 124 108 
2 8 0 10 9 10 1 109 
10 8 0 8 10 8 5 133 132 126 119 111 
7 4 0 8 8 9 3 126 119 111 
7 7 0 8 10 8 2 131 112 
2 7 0 10 9 10 2 123 113 
5 8 0 10 4 10 1 115 
9 6 0 3 6 6 3 123 121 118 
5 8 0 7 6 6 1 117 
2 6 0 6 7 8 1 117 
1 8 0 6 9 5 2 130 118 
2 5 0 8 10 10 2 129 122 
8 5 0 9 6 9 2 130 123 
8 7 0 10 7 8 2 130 121 
7 10 0 9 4 5 2 129 128 
2 10 0 9 3 5 1 125 
7 8 0 7 4 10 1 125 
10 9 0 5 5 8 1 125 
4 9 0 5 8 7 1 128 
7 3 0 9 10 5 1 130 
5 8 0 10 8 10 1 128 
2 5 0 5 5 7 1 134 
3 9 0 10 10 7 1 134 
7 5 0 4 7 10 1 134 
9 10 0 10 10 9 1 134 
6 7 0 9 8 10 1 134 
2 7 0 7 7 6 1 134 
0 0 0 0 0 0 1 303 
0 0 0 0 0 0 3 136 137 146 
3 0 0 2 2 4 2 154 138 
9 0 0 8 5 10 2 154 138 
9 0 0 10 6 8 2 142 139 
4 0 0 4 6 6 2 145 140 
9 0 0 9 7 5 2 156 141 
8 0 0 10 7 6 2 152 143 
10 0 0 9 8 5 2 145 144 
10 0 0 5 8 10 1 144 
1 0 0 7 8 8 3 160 151 147 
4 0 0 4 7 8 2 160 147 
7 0 0 8 10 8 4 157 156 151 150 
7 0 0 10 10 8 2 157 148 
5 0 0 9 7 9 1 149 
8 0 0 8 10 9 1 150 
2 0 0 6 10 7 2 165 153 
5 0 0 8 9 9 2 165 153 
1 0 0 5 5 10 2 165 153 
10 0 0 4 10 7 3 164 159 155 
6 0 0 10 5 3 3 164 159 155 
9 0 0 10 9 10 3 163 162 158 
10 0 0 7 6 4 3 163 162 161 
5 0 0 6 10 8 1 158 
4 0 0 10 5 9 1 161 
1 0 0 4 9 10 1 162 
6 0 0 10 6 7 1 165 
1 0 0 9 8 8 1 166 
1 0 0 9 10 6 1 166 
7 0 0 8 8 8 1 166 
2 0 0 9 8 5 1 166 
7 0 0 7 6 10 1 166 
0 0 0 0 0 0 1 303 
0 0 0 0 0 0 3 168 172 174 
9 0 0 0 0 5 2 170 169 
9 0 0 0 0 9 2 177 171 
4 0 0 0 0 6 2 177 173 
7 0 0 0 0 4 1 173 
3 0 0 0 0 10 1 173 
9 0 0 0 0 9 2 176 175 
5 0 0 0 0 6 2 177 175 
10 0 0 0 0 10 1 178 
3 0 0 0 0 9 1 178 
9 0 0 0 0 7 1 178 
0 0 0 0 0 0 3 211 233 245 
0 0 0 0 0 0 3 180 192 209 
3 0 1 4 0 5 2 208 181 
10 0 7 5 0 8 2 206 182 
1 0 9 9 0 7 1 183 
9 0 5 8 0 8 3 205 203 184 
10 0 8 5 0 7 2 204 185 
2 0 7 6 0 10 3 202 201 186 
1 0 8 10 0 6 1 187 
9 0 8 7 0 9 2 200 188 
7 0 9 8 0 5 1 189 
3 0 10 6 0 7 1 190 
2 0 9 5 0 7 2 199 191 
5 0 8 9 0 8 4 198 197 196 193 
1 0 9 4 0 7 4 207 203 201 195 
2 0 9 10 0 10 1 194 
2 0 10 10 0 9 1 195 
9 0 9 8 0 10 1 210 
5 0 6 7 0 10 1 210 
1 0 3 10 0 8 1 210 
5 0 6 6 0 10 1 210 
10 0 8 10 0 6 1 210 
4 0 7 7 0 3 1 210 
10 0 7 10 0 10 1 210 
1 0 10 5 0 9 1 210 
7 0 8 10 0 8 1 210 
3 0 6 8 0 6 1 210 
5 0 9 10 0 7 1 210 
5 0 4 5 0 7 1 210 
10 0 8 8 0 5 1 210 
7 0 8 10 0 6 1 210 
5 0 9 5 0 7 1 210 
0 0 0 0 0 0 1 303 
0 0 0 0 0 0 1 212 
2 2 0 4 0 0 2 222 213 
1 6 0 6 0 0 2 216 214 
6 7 0 10 0 0 1 215 
5 8 0 10 0 0 2 226 217 
3 10 0 5 0 0 2 226 217 
3 10 0 9 0 0 4 224 221 220 218 
8 9 0 6 0 0 1 219 
4 8 0 5 0 0 2 230 223 
8 10 0 9 0 0 2 230 223 
4 6 0 9 0 0 2 230 223 
9 5 0 7 0 0 1 224 
7 8 0 9 0 0 2 229 225 
2 6 0 6 0 0 2 229 225 
10 10 0 9 0 0 2 228 227 
8 4 0 6 0 0 1 231 
10 8 0 10 0 0 1 232 
1 4 0 10 0 0 1 232 
3 10 0 8 0 0 1 232 
3 9 0 7 0 0 1 232 
7 10 0 5 0 0 1 232 
0 0 0 0 0 0 1 303 
0 0 0 0 0 0 4 234 236 240 243 
4 0 0 0 1 0 2 237 235 
8 0 0 0 8 0 2 242 238 
7 0 0 0 7 0 2 242 239 
6 0 0 0 9 0 2 242 241 
5 0 0 0 10 0 1 239 
1 0 0 0 6 0 1 241 
7 0 0 0 9 0 1 242 
6 0 0 0 6 0 1 244 
1 0 0 0 9 0 1 244 
8 0 0 0 10 0 1 244 
0 0 0 0 0 0 3 267 279 291 
0 0 0 0 0 0 1 246 
1 0 2 0 2 0 1 247 
3 0 5 0 10 0 2 249 248 
6 0 7 0 9 0 1 250 
8 0 8 0 6 0 1 250 
6 0 6 0 10 0 1 251 
6 0 9 0 8 0 2 253 252 
2 0 9 0 10 0 2 257 254 
8 0 7 0 7 0 2 257 254 
8 0 8 0 8 0 4 259 258 256 255 
5 0 6 0 9 0 5 265 264 262 261 260 
8 0 8 0 10 0 5 265 264 262 261 260 
10 0 5 0 8 0 5 265 264 262 261 260 
7 0 8 0 4 0 4 264 262 261 260 
1 0 10 0 10 0 3 265 264 260 
8 0 10 0 10 0 1 263 
10 0 8 0 8 0 1 263 
9 0 10 0 7 0 1 263 
1 0 5 0 8 0 1 266 
8 0 10 0 5 0 1 266 
9 0 9 0 1 0 1 266 
0 0 0 0 0 0 1 303 
0 0 0 0 0 0 4 268 269 270 274 
5 0 0 0 0 3 2 273 272 
5 0 0 0 0 10 1 271 
4 0 0 0 0 2 1 271 
1 0 0 0 0 10 1 272 
6 0 0 0 0 7 1 275 
7 0 0 0 0 7 1 275 
5 0 0 0 0 9 1 275 
5 0 0 0 0 10 2 277 276 
8 0 0 0 0 9 1 278 
3 0 0 0 0 8 1 278 
0 0 0 0 0 0 1 303 
0 0 0 0 0 0 2 280 282 
9 0 0 1 0 0 2 289 281 
7 0 0 9 0 0 3 288 285 283 
3 0 0 10 0 0 2 287 284 
5 0 0 8 0 0 1 284 
10 0 0 8 0 0 1 286 
1 0 0 6 0 0 1 287 
8 0 0 9 0 0 1 290 
3 0 0 10 0 0 1 290 
7 0 0 5 0 0 1 290 
7 0 0 9 0 0 1 290 
0 0 0 0 0 0 1 303 
0 0 0 0 0 0 3 292 294 295 
7 0 3 0 0 0 1 293 
4 0 10 0 0 0 2 300 296 
4 0 9 0 0 0 3 301 300 299 
8 0 10 0 0 0 1 297 
10 0 5 0 0 0 1 298 
6 0 7 0 0 0 1 298 
4 0 7 0 0 0 1 299 
10 0 10 0 0 0 1 302 
8 0 4 0 0 0 1 302 
7 0 10 0 0 0 1 302 
0 0 0 0 0 0 1 303 
0 0 0 0 0 0 0 
